16
3 15
3 11
3 7
3 0
3 10
3 6
3 13
3 5
3 12
3 8
15 7
15 9
15 0
15 8
15 14
15 12
15 4
15 2
15 11
6 9
6 14
6 7
6 10
6 2
6 11
6 12
6 4
6 13
9 5
9 8
9 4
9 2
9 11
9 14
9 1
9 13
4 7
4 13
4 0
4 10
4 14
4 11
4 2
7 12
7 0
7 14
7 5
7 1
7 8
10 11
10 12
10 8
10 1
10 2
10 5
10 14
11 0
11 5
11 8
11 2
5 13
5 12
5 8
5 1
5 0
12 13
12 14
12 1
12 8
0 2
0 8
0 1
0 13
2 1
2 13
2 14
13 1
13 14
8 1
14 1
